Fe8 F24
1.0
   1.5971709999999999    4.2959129999999996    8.2700130000000005
  -6.0906079999999996    8.6098060000000007   10.7663279999999997
  -3.2035460000000002   -8.6456579999999992   -5.7002740000000003
Fe F
8 24
direct
   1.0000000000000000    0.2500000000000000    1.0000000000000000 Fe
   0.0000000000000001    0.2499999999999999    0.5000000000000001 Fe
   0.9999999999999998    0.7500000000000000    0.9999999999999999 Fe
   1.0000000000000000    0.7499999999999999    0.5000000000000001 Fe
   0.0000000000000000    0.0000000000000000    0.0000000000000000 Fe
   0.0000000000000001    0.9999999999999999    0.5000000000000001 Fe
   1.0000000000000000    0.5000000000000000    1.0000000000000000 Fe
   0.0000000000000001    0.4999999999999998    0.5000000000000001 Fe
   0.5002259999999999    0.1663274999999999    0.2868190000000000 F
   0.5002260000000001    0.1663274999999999    0.7868190000000002 F
   0.5002260000000001    0.6663274999999999    0.2868190000000001 F
   0.5002260000000002    0.6663274999999997    0.7868190000000002 F
   0.0957090000000000    0.1250000000000000    0.0957090000000000 F
   0.0957090000000001    0.1249999999999999    0.5957090000000002 F
   0.0957089999999997    0.6249999999999999    0.0957090000000000 F
   0.0957089999999999    0.6249999999999999    0.5957090000000000 F
   0.0734119999999991    0.0836724999999999    0.2868190000000001 F
   0.0734119999999993    0.0836724999999999    0.7868190000000004 F
   0.0734119999999990    0.5836724999999999    0.2868190000000001 F
   0.0734119999999992    0.5836724999999999    0.7868190000000003 F
   0.4997740000000000    0.3336724999999999    0.2131809999999996 F
   0.4997740000000001    0.3336724999999999    0.7131809999999997 F
   0.4997739999999999    0.8336724999999999    0.2131809999999996 F
   0.4997740000000002    0.8336724999999998    0.7131809999999998 F
   0.9042909999999997    0.3750000000000000    0.4042909999999995 F
   0.9042909999999998    0.3749999999999999    0.9042909999999996 F
   0.9042909999999994    0.8749999999999999    0.4042909999999994 F
   0.9042909999999997    0.8749999999999999    0.9042909999999995 F
   0.9265879999999996    0.4163274999999995    0.2131809999999994 F
   0.9265879999999996    0.4163274999999994    0.7131809999999995 F
   0.9265879999999993    0.9163274999999995    0.2131809999999994 F
   0.9265879999999996    0.9163274999999994    0.7131809999999996 F
