Fe8 F32
1.0
  -2.7256039999999988    2.7256039999999988    5.0527210000000000
   5.4512079999999976   -5.4512079999999976   10.1054420000000000
   5.4512079999999976    5.4512079999999976  -10.1054420000000000
Fe F
8 32
direct
   0.0000000000000000    0.2500000000000000    0.2500000000000000 Fe
   1.0000000000000000    0.2499999999999999    0.7500000000000000 Fe
   0.0000000000000000    0.7500000000000000    0.2500000000000000 Fe
   0.0000000000000000    0.7499999999999999    0.7500000000000000 Fe
   0.4999999999999999    1.0000000000000000    0.2500000000000000 Fe
   0.4999999999999999    0.9999999999999999    0.7500000000000000 Fe
   0.4999999999999999    0.4999999999999999    0.2500000000000000 Fe
   0.4999999999999999    0.4999999999999999    0.7500000000000000 Fe
   0.9536319999999989    0.2268160000000000    0.0834105000000000 F
   0.9536319999999990    0.2268159999999999    0.5834105000000001 F
   0.9536319999999990    0.7268159999999999    0.0834105000000000 F
   0.9536319999999989    0.7268159999999999    0.5834105000000001 F
   0.7131889999999999    0.1065945000000000    0.0834105000000000 F
   0.7131890000000000    0.1065944999999999    0.5834105000000001 F
   0.7131889999999999    0.6065944999999999    0.0834105000000000 F
   0.7131889999999999    0.6065944999999999    0.5834105000000001 F
   0.0463680000000000    0.2731840000000000    0.4165895000000000 F
   0.0463679999999999    0.2731840000000000    0.9165894999999999 F
   0.0463680000000000    0.7731840000000000    0.4165894999999999 F
   0.0463680000000000    0.7731840000000000    0.9165895000000001 F
   0.5463679999999999    0.3565944999999999    0.2500000000000000 F
   0.5463679999999999    0.3565944999999999    0.7500000000000000 F
   0.5463679999999999    0.8565944999999999    0.2500000000000000 F
   0.5463679999999999    0.8565944999999998    0.7500000000000000 F
   0.2868110000000000    0.3934054999999995    0.4165895000000000 F
   0.2868109999999999    0.3934054999999994    0.9165894999999999 F
   0.2868110000000000    0.8934054999999994    0.4165895000000000 F
   0.2868110000000000    0.8934054999999994    0.9165895000000001 F
   0.7868109999999991    0.4768159999999995    0.2500000000000000 F
   0.7868109999999990    0.4768159999999994    0.7500000000000000 F
   0.7868109999999990    0.9768159999999994    0.2500000000000000 F
   0.7868109999999991    0.9768159999999995    0.7499999999999999 F
   0.4536319999999999    0.1434055000000000    0.2500000000000000 F
   0.4536319999999999    0.1434054999999999    0.7500000000000000 F
   0.4536319999999999    0.6434055000000000    0.2500000000000000 F
   0.4536319999999999    0.6434055000000000    0.7500000000000000 F
   0.2131889999999999    0.0231840000000000    0.2500000000000000 F
   0.2131890000000000    0.0231839999999999    0.7500000000000000 F
   0.2131890000000000    0.5231840000000000    0.2500000000000000 F
   0.2131889999999999    0.5231840000000000    0.7500000000000000 F
