Fe2 F8
1.0
  -2.7256039999999988    2.7256039999999988    5.0527210000000000
   2.7256039999999988   -2.7256039999999988    5.0527210000000000
   2.7256039999999988    2.7256039999999988   -5.0527210000000000
Fe F
2 8
direct
   0.0000000000000000    0.5000000000000000    0.5000000000000000 Fe
   0.5000000000000000    0.0000000000000000    0.5000000000000000 Fe
   0.9536319999999990    0.4536320000000000    0.1668210000000000 F
   0.7131890000000000    0.2131890000000000    0.1668210000000000 F
   0.0463680000000000    0.5463680000000000    0.8331790000000000 F
   0.5463680000000000    0.7131890000000000    0.5000000000000000 F
   0.2868110000000000    0.7868109999999990    0.8331790000000000 F
   0.7868109999999990    0.9536319999999990    0.5000000000000000 F
   0.4536320000000000    0.2868110000000000    0.5000000000000000 F
   0.2131890000000000    0.0463680000000000    0.5000000000000000 F
