Fe12 F24
1.0
   3.3381342300000001    0.0000000000000000    0.0000000000000000
   0.0000000000000000    9.2989586800000001   -0.0081967000000000
   0.0000000000000000   -0.0122950500000000   13.9484380200000011
Fe F
12 24
direct
   0.5000000000000000    0.2500000000000000    0.1666666666666667 Fe
   0.5000000000000000    0.2500000000000000    0.5000000000000000 Fe
   0.5000000000000000    0.2500000000000000    0.8333333333333333 Fe
   0.5000000000000000    0.7500000000000000    0.1666666666666667 Fe
   0.5000000000000000    0.7500000000000000    0.5000000000000000 Fe
   0.5000000000000000    0.7499999999999999    0.8333333333333333 Fe
   0.0000000000000000    0.0000000000000000    0.0000000000000000 Fe
   0.0000000000000000    1.0000000000000000    0.3333333333333333 Fe
   0.0000000000000000    1.0000000000000000    0.6666666666666666 Fe
   0.0000000000000000    0.5000000000000000    0.0000000000000000 Fe
   0.0000000000000000    0.5000000000000000    0.3333333333333333 Fe
   0.0000000000000000    0.5000000000000000    0.6666666666666666 Fe
   0.0000000000000000    0.3492169600000000    0.2328113066666667 F
   0.0000000000000000    0.3492169600000000    0.5661446400000000 F
   0.0000000000000000    0.3492169600000000    0.8994779733333332 F
   0.0000000000000000    0.8492169600000000    0.2328113066666667 F
   0.0000000000000000    0.8492169600000000    0.5661446400000000 F
   0.0000000000000000    0.8492169599999999    0.8994779733333332 F
   0.5000000000000000    0.4007294750000000    0.0661803500000000 F
   0.5000000000000000    0.4007294750000000    0.3995136833333333 F
   0.5000000000000000    0.4007294750000000    0.7328470166666665 F
   0.5000000000000000    0.9007294750000000    0.0661803500000000 F
   0.5000000000000000    0.9007294750000001    0.3995136833333334 F
   0.5000000000000000    0.9007294749999999    0.7328470166666666 F
   0.0000000000000000    0.1507830400000000    0.1005220266666667 F
   0.0000000000000000    0.1507830400000000    0.4338553600000000 F
   0.0000000000000000    0.1507830400000000    0.7671886933333333 F
   0.0000000000000000    0.6507830400000000    0.1005220266666667 F
   0.0000000000000000    0.6507830400000001    0.4338553600000000 F
   0.0000000000000000    0.6507830400000000    0.7671886933333333 F
   0.5000000000000000    0.0992705250000000    0.2671529833333333 F
   0.5000000000000000    0.0992705250000000    0.6004863166666666 F
   0.5000000000000000    0.0992705250000000    0.9338196499999999 F
   0.5000000000000000    0.5992705250000000    0.2671529833333333 F
   0.5000000000000000    0.5992705250000000    0.6004863166666667 F
   0.5000000000000000    0.5992705250000000    0.9338196499999999 F
