Fe2 F4
1.0
   3.3381342300000001    0.0000000000000000    0.0000000000000000
   0.0000000000000000    4.6494793400000001   -0.0040983500000000
   0.0000000000000000   -0.0040983500000000    4.6494793400000001
Fe F
2 4
direct
   0.5000000000000000    0.5000000000000000    0.5000000000000000 Fe
   0.0000000000000000    0.0000000000000000   -0.0000000000000000 Fe
   0.0000000000000000    0.6984339200000000    0.6984339200000000 F
   0.5000000000000000    0.8014589500000000    0.1985410500000000 F
  -0.0000000000000000    0.3015660800000000    0.3015660800000000 F
   0.5000000000000000    0.1985410500000000    0.8014589500000000 F
