Fe6 F36
1.0
  -1.4695438400000000   -2.5406491899999999    0.5762632600000001
  -3.2803620599999999    3.5842017500000001   -0.2877835900000000
   4.0526173800000000    6.9998993999999994  -46.2482014200000009
Fe F
6 36
direct
   0.9999554000000002    0.9999813700000001    0.3333315133333336 Fe
   0.9999553999999998    0.9999813700000001    0.6666648466666668 Fe
   0.9999554000000000    0.9999813700000001    0.9999981800000002 Fe
   0.5000504600000010    0.0000146800000000    0.1666714300000002 Fe
   0.5000504600000010    0.0000146800000000    0.5000047633333335 Fe
   0.5000504600000005    0.0000146800000003    0.8333380966666667 Fe
   0.7419570200000006    0.6488758600000000    0.2651104500000001 F
   0.7419570200000005    0.6488758600000000    0.5984437833333334 F
   0.7419570200000004    0.6488758600000000    0.9317771166666666 F
   0.2580855200000003    0.3511389200000000    0.0682236966666667 F
   0.2580855200000002    0.3511389200000001    0.4015570300000000 F
   0.2580855199999998    0.3511389200000001    0.7348903633333332 F
   0.6564953400000004    0.2424366999999990    0.0120694700000001 F
   0.6564953400000003    0.2424366999999991    0.3454028033333333 F
   0.6564953400000002    0.2424366999999990    0.6787361366666667 F
   0.4091094200000007    0.6477118900000001    0.2348531633333334 F
   0.4091094200000004    0.6477118900000001    0.5681864966666667 F
   0.4091094200000002    0.6477118900000001    0.9015198300000000 F
   0.3434121800000007    0.7575344600000001    0.3212559500000001 F
   0.3434121800000005    0.7575344600000001    0.6545892833333333 F
   0.3434121800000002    0.7575344600000000    0.9879226166666666 F
   0.5909024200000005    0.3522907999999991    0.0984809700000001 F
   0.5909024200000003    0.3522907999999990    0.4318143033333334 F
   0.5909024200000004    0.3522907999999990    0.7651476366666667 F
   0.7789389800000003    0.1594301300000000    0.2018376966666667 F
   0.7789389800000002    0.1594301300000001    0.5351710300000000 F
   0.7789389800000004    0.1594301299999999    0.8685043633333334 F
   0.0850178200000002    0.2423312400000000    0.1545514233333334 F
   0.0850178200000002    0.2423312400000000    0.4878847566666666 F
   0.0850178200000002    0.2423312399999999    0.8212180900000000 F
   0.2211277900000008    0.8405855700000001    0.1315008333333335 F
   0.2211277900000005    0.8405855700000001    0.4648341666666667 F
   0.2211277900000005    0.8405855699999999    0.7981675000000000 F
   0.9150461800000009    0.7576803999999991    0.1787869066666669 F
   0.9150461800000008    0.7576803999999991    0.5121202400000001 F
   0.9150461800000005    0.7576803999999991    0.8454535733333334 F
   0.8788180800000003    0.1588461300000001    0.2981291533333334 F
   0.8788180800000002    0.1588461300000001    0.6314624866666667 F
   0.8788180799999997    0.1588461300000001    0.9647958199999999 F
   0.1210843600000008    0.8411418600000000    0.0351970100000002 F
   0.1210843600000005    0.8411418600000000    0.3685303433333334 F
   0.1210843600000005    0.8411418600000000    0.7018636766666667 F
