Fe2 F6
1.0
   1.5971709999999999    4.2959129999999996    8.2700130000000005
  -3.0453039999999998    4.3049030000000004    5.3831639999999998
  -1.6017730000000001   -4.3228289999999996   -2.8501370000000001
Fe F
2 6
direct
   0.0000000000000000    0.5000000000000000    0.0000000000000000 Fe
   0.0000000000000000    0.0000000000000000    0.0000000000000000 Fe
   0.5002259999999999    0.3326550000000000    0.5736380000000000 F
   0.0957090000000000    0.2500000000000000    0.1914180000000000 F
   0.0734119999999990    0.1673450000000000    0.5736380000000000 F
   0.4997740000000000    0.6673450000000000    0.4263619999999990 F
   0.9042910000000000    0.7500000000000000    0.8085819999999990 F
   0.9265880000000000    0.8326549999999990    0.4263619999999990 F
