Fe12 F36
1.0
   3.7003936099999999   -6.3117320200000000    0.0000000000000000
   3.7003936099999999    6.3117320200000000    0.0000000000000000
   0.0000000000000000    0.0000000000000000   14.8820840400000005
Fe F
12 36
direct
   0.0000000000000000    0.5000000000000000    0.2500000000000000 Fe
   0.0000000000000000    0.5000000000000000    0.7500000000000000 Fe
   0.0000000000000000    0.5000000000000000    0.0000000000000000 Fe
   0.0000000000000000    0.5000000000000000    0.5000000000000000 Fe
   0.5000000000000000    0.0000000000000000    0.2500000000000000 Fe
   0.5000000000000000    0.0000000000000000    0.7500000000000000 Fe
   0.5000000000000000    0.0000000000000000    0.0000000000000000 Fe
   0.5000000000000000    0.0000000000000000    0.5000000000000000 Fe
   0.5000000000000000    0.5000000000000000    0.2500000000000000 Fe
   0.5000000000000000    0.5000000000000000    0.7500000000000000 Fe
   0.5000000000000000    0.5000000000000000    0.0000000000000000 Fe
   0.5000000000000000    0.5000000000000000    0.5000000000000000 Fe
   0.7890460500000001    0.5804396500000000    0.0248390550000000 F
   0.7890460500000001    0.5804396500000000    0.5248390550000001 F
   0.2109539500000000    0.4195603500000001    0.4751609450000000 F
   0.2109539500000000    0.4195603500000001    0.9751609449999999 F
   0.2109539500000000    0.4195603500000001    0.2748390550000000 F
   0.2109539500000000    0.4195603500000001    0.7748390550000001 F
   0.7890460500000001    0.5804396500000000    0.2251609450000000 F
   0.7890460500000001    0.5804396500000000    0.7251609449999999 F
   0.5804396500000000    0.7890460500000001    0.4751609450000000 F
   0.5804396500000000    0.7890460500000001    0.9751609449999999 F
   0.4195603500000001    0.2109539500000000    0.0248390550000000 F
   0.4195603500000001    0.2109539500000000    0.5248390550000001 F
   0.4195603500000001    0.2109539500000000    0.2251609450000000 F
   0.4195603500000001    0.2109539500000000    0.7251609449999999 F
   0.5804396500000000    0.7890460500000001    0.2748390550000000 F
   0.5804396500000000    0.7890460500000001    0.7748390550000001 F
   0.7815200700000000    0.2184799300000000    0.2766814350000000 F
   0.7815200700000000    0.2184799300000000    0.7766814350000000 F
   0.2184799300000000    0.7815200700000000    0.2233185650000000 F
   0.2184799300000000    0.7815200700000000    0.7233185650000000 F
   0.2184799300000000    0.7815200700000000    0.0266814350000000 F
   0.2184799300000000    0.7815200700000000    0.5266814350000001 F
   0.7815200700000000    0.2184799300000000    0.4733185650000001 F
   0.7815200700000000    0.2184799300000000    0.9733185650000001 F
   0.9936785900000000    0.4231874300000000    0.1250000000000000 F
   0.9936785900000000    0.4231874300000000    0.6250000000000000 F
   0.0063214100000000    0.5768125700000000    0.3750000000000000 F
   0.0063214100000000    0.5768125700000000    0.8750000000000000 F
   0.4231874300000000    0.9936785900000000    0.3750000000000000 F
   0.4231874300000000    0.9936785900000000    0.8750000000000000 F
   0.5768125700000000    0.0063214100000000    0.1250000000000000 F
   0.5768125700000000    0.0063214100000000    0.6250000000000000 F
   0.5436381100000002    0.4563618900000001    0.3750000000000000 F
   0.5436381100000002    0.4563618900000001    0.8750000000000000 F
   0.4563618899999999    0.5436381100000001    0.1250000000000000 F
   0.4563618899999999    0.5436381100000001    0.6250000000000000 F
