Fe6 F18
1.0
   3.7003936099999999   -6.3117320200000000   -0.0000000000000000
   3.7003936099999999    6.3117320200000000    0.0000000000000000
   0.0000000000000000    0.0000000000000000    7.4410420200000003
Fe F
6 18
direct
  -0.0000000000000000    0.5000000000000000    0.5000000000000000 Fe
  -0.0000000000000000    0.5000000000000000    0.0000000000000000 Fe
   0.5000000000000000   -0.0000000000000000    0.5000000000000000 Fe
   0.5000000000000000   -0.0000000000000000    0.0000000000000000 Fe
   0.5000000000000000    0.5000000000000000    0.5000000000000000 Fe
   0.5000000000000000    0.5000000000000000    0.0000000000000000 Fe
   0.7890460500000001    0.5804396500000000    0.0496781100000000 F
   0.2109539500000000    0.4195603500000000    0.9503218900000000 F
   0.2109539500000000    0.4195603500000000    0.5496781100000000 F
   0.7890460500000001    0.5804396500000000    0.4503218900000000 F
   0.5804396500000000    0.7890460500000001    0.9503218900000000 F
   0.4195603500000000    0.2109539500000000    0.0496781100000000 F
   0.4195603500000000    0.2109539500000000    0.4503218900000000 F
   0.5804396500000000    0.7890460500000001    0.5496781100000000 F
   0.7815200700000000    0.2184799300000000    0.5533628700000001 F
   0.2184799300000000    0.7815200700000000    0.4466371300000000 F
   0.2184799300000000    0.7815200700000000    0.0533628700000000 F
   0.7815200700000000    0.2184799300000000    0.9466371300000000 F
   0.9936785900000000    0.4231874300000000    0.2500000000000000 F
   0.0063214100000000    0.5768125700000000    0.7500000000000000 F
   0.4231874300000000    0.9936785900000000    0.7500000000000000 F
   0.5768125700000000    0.0063214100000000    0.2500000000000000 F
   0.5436381100000001    0.4563618900000000    0.7500000000000000 F
   0.4563618900000000    0.5436381100000001    0.2500000000000000 F
