Fe2 F12
1.0
  -1.4695438400000000   -2.5406491899999999    0.5762632600000001
  -3.2803620599999999    3.5842017500000001   -0.2877835900000000
   1.3508724599999999    2.3332997999999998  -15.4160671399999991
Fe F
2 12
direct
   0.9999553999999991    0.9999813700000000    0.9999945400000000 Fe
   0.5000504600000000    1.0000146800000000    0.5000142900000000 Fe
   0.7419570200000000    0.6488758600000000    0.7953313500000000 F
   0.2580855200000000    0.3511389200000000    0.2046710900000000 F
   0.6564953400000000    0.2424366999999990    0.0362084100000000 F
   0.4091094200000000    0.6477118900000001    0.7045594900000001 F
   0.3434121800000000    0.7575344600000000    0.9637678500000000 F
   0.5909024200000000    0.3522907999999990    0.2954429100000000 F
   0.7789389800000001    0.1594301300000000    0.6055130900000000 F
   0.0850178200000000    0.2423312400000000    0.4636542700000000 F
   0.2211277900000000    0.8405855700000000    0.3945025000000000 F
   0.9150461800000000    0.7576803999999990    0.5363607200000000 F
   0.8788180800000001    0.1588461300000000    0.8943874600000000 F
   0.1210843600000000    0.8411418600000000    0.1055910300000000 F
