Fe9 F27
1.0
   5.4577235100000001   -0.0000020300000000    0.0000000000000000
  -2.7288632800000001    4.7265252100000001    0.0000000000000000
   0.0000000000000000    0.0000000000000000   20.0575602000000011
Fe F
9 27
direct
   0.6666670000000000    0.3333330000000000    0.1111170400000000 Fe
   0.6666670000000000    0.3333330000000000    0.4444503733333333 Fe
   0.6666670000000000    0.3333330000000000    0.7777837066666666 Fe
   0.3333330000000000    0.6666670000000000    0.2222162933333333 Fe
   0.3333330000000000    0.6666670000000000    0.5555496266666666 Fe
   0.3333330000000000    0.6666670000000000    0.8888829600000000 Fe
   0.0000000000000000    0.0000000000000000    0.0000000000000000 Fe
   0.0000000000000000    0.0000000000000000    0.3333333333333333 Fe
   0.0000000000000000    0.0000000000000000    0.6666666666666666 Fe
   0.6666631900000000    0.8359348900000000    0.2777762333333330 F
   0.6666631900000000    0.8359348900000000    0.6111095666666664 F
   0.6666631900000000    0.8359348900000000    0.9444428999999998 F
   0.1640661100000001    0.8307302999999991    0.2777762333333330 F
   0.1640661100000001    0.8307302999999991    0.6111095666666664 F
   0.1640661100000001    0.8307302999999991    0.9444428999999998 F
   0.1692697000000000    0.3333368100000000    0.2777762333333330 F
   0.1692697000000000    0.3333368100000000    0.6111095666666664 F
   0.1692697000000000    0.3333368100000000    0.9444428999999998 F
   0.5049421900000000    0.5049421900000000    0.1666666666666667 F
   0.5049421900000000    0.5049421900000000    0.5000000000000000 F
   0.5049421900000000    0.5049421900000000    0.8333333333333334 F
   0.4950578100000000    1.0000000000000000    0.1666666666666667 F
   0.4950578100000000    1.0000000000000000    0.5000000000000000 F
   0.4950578100000000    1.0000000000000000    0.8333333333333334 F
   0.0000000000000001    0.4950578100000000    0.1666666666666667 F
   0.0000000000000001    0.4950578100000000    0.5000000000000000 F
   0.0000000000000001    0.4950578100000000    0.8333333333333334 F
   0.8359348899999999    0.6666631900000000    0.0555571000000000 F
   0.8359348899999999    0.6666631900000000    0.3888904333333333 F
   0.8359348899999999    0.6666631900000000    0.7222237666666667 F
   0.3333368100000000    0.1692697000000000    0.0555571000000000 F
   0.3333368100000000    0.1692697000000000    0.3888904333333333 F
   0.3333368100000000    0.1692697000000000    0.7222237666666667 F
   0.8307302999999990    0.1640661100000000    0.0555571000000000 F
   0.8307302999999990    0.1640661100000000    0.3888904333333333 F
   0.8307302999999990    0.1640661100000000    0.7222237666666667 F
