Fe4 F12
1.0
   6.3351922299999996    0.0000099100000000    3.6576448600000000
   2.1117416499999999    5.9728730700000003    3.6576438700000002
   0.0000138800000000    0.0000089300000000    7.3152659199999999
Fe F
4 12
direct
  -0.0000000000000000    0.0000000000000000    0.5000000000000000 Fe
  -0.0000000000000000    0.0000000000000000    0.0000000000000000 Fe
  -0.0000000000000000    0.5000000000000000    0.0000000000000000 Fe
   0.5000000000000000    0.0000000000000000    0.0000000000000000 Fe
   0.9385605800000000    0.9385605800000000    0.3114394200000000 F
   0.9385595800000001    0.3114394200000000    0.3114394200000000 F
   0.3114394200000000    0.9385595800000001    0.3114394200000000 F
   0.0614394200000000    0.6885605800000000    0.0614394200000000 F
   0.6885605800000000    0.0614394200000000    0.0614394200000000 F
   0.6885605800000000    0.6885605800000000    0.0614404200000000 F
   0.9385605800000000    0.3114394200000000    0.9385605800000000 F
   0.0614394200000000    0.0614394200000000    0.6885605800000000 F
   0.6885605800000000    0.0614404200000000    0.6885605800000000 F
   0.3114394200000000    0.3114394200000000    0.9385595800000001 F
   0.0614404200000000    0.6885605800000000    0.6885605800000000 F
   0.3114394200000000    0.9385605800000000    0.9385605800000000 F
