Fe8 F24
1.0
   6.3351922299999996    0.0000099100000000    3.6576448600000000
   2.1117416499999999    5.9728730700000003    3.6576438700000002
   0.0000277600000000    0.0000178600000000   14.6305318399999997
Fe F
8 24
direct
   0.0000000000000000    0.0000000000000000    0.2500000000000000 Fe
   0.0000000000000000    0.0000000000000000    0.7499999999999999 Fe
   0.0000000000000000    0.0000000000000000    0.0000000000000000 Fe
   0.0000000000000000    0.0000000000000000    0.4999999999999999 Fe
   1.0000000000000000    0.5000000000000000    0.0000000000000000 Fe
   1.0000000000000000    0.5000000000000000    0.5000000000000000 Fe
   0.5000000000000000    0.0000000000000000    0.0000000000000000 Fe
   0.4999999999999999    0.0000000000000000    0.5000000000000000 Fe
   0.9385605799999999    0.9385605800000001    0.1557197099999999 F
   0.9385605799999998    0.9385605800000001    0.6557197099999998 F
   0.9385595800000001    0.3114394200000000    0.1557197100000000 F
   0.9385595799999999    0.3114394200000000    0.6557197100000001 F
   0.3114394200000000    0.9385595800000002    0.1557197100000000 F
   0.3114394200000000    0.9385595800000002    0.6557197100000000 F
   0.0614394199999999    0.6885605800000001    0.0307197100000000 F
   0.0614394199999999    0.6885605800000001    0.5307197099999998 F
   0.6885605799999999    0.0614394200000000    0.0307197100000000 F
   0.6885605799999999    0.0614394200000000    0.5307197100000000 F
   0.6885605800000000    0.6885605800000000    0.0307202100000000 F
   0.6885605800000000    0.6885605800000000    0.5307202100000000 F
   0.9385605800000000    0.3114394200000000    0.4692802899999999 F
   0.9385605799999999    0.3114394200000001    0.9692802899999998 F
   0.0614394200000000    0.0614394200000000    0.3442802899999999 F
   0.0614394200000000    0.0614394200000000    0.8442802899999999 F
   0.6885605799999999    0.0614404200000000    0.3442802900000000 F
   0.6885605799999999    0.0614404200000000    0.8442802899999999 F
   0.3114394200000000    0.3114394200000001    0.4692797900000001 F
   0.3114394200000000    0.3114394200000000    0.9692797899999999 F
   0.0614404200000000    0.6885605799999999    0.3442802899999999 F
   0.0614404200000000    0.6885605799999999    0.8442802899999999 F
   0.3114394200000000    0.9385605799999999    0.4692802899999999 F
   0.3114394200000000    0.9385605799999999    0.9692802900000000 F
