Fe3 F9
1.0
   5.4577235100000001   -0.0000020300000000    0.0000000000000000
  -2.7288632800000001    4.7265252100000001   -0.0000000000000000
   0.0000000000000000   -0.0000000000000000    6.6858534000000001
Fe F
3 9
direct
   0.6666670000000000    0.3333330000000000    0.3333511200000000 Fe
   0.3333330000000000    0.6666670000000000    0.6666488800000000 Fe
  -0.0000000000000000    0.0000000000000000   -0.0000000000000000 Fe
   0.6666631900000000    0.8359348900000000    0.8333286999999990 F
   0.1640661100000000    0.8307302999999990    0.8333286999999990 F
   0.1692697000000000    0.3333368100000000    0.8333286999999990 F
   0.5049421900000000    0.5049421900000000    0.5000000000000000 F
   0.4950578100000000   -0.0000000000000000    0.5000000000000000 F
  -0.0000000000000000    0.4950578100000000    0.5000000000000000 F
   0.8359348900000000    0.6666631900000000    0.1666713000000000 F
   0.3333368100000000    0.1692697000000000    0.1666713000000000 F
   0.8307302999999990    0.1640661100000000    0.1666713000000000 F
