Fe24 F8
1.0
   7.6929239999999997    0.0000000000000000    0.0000000000000000
   0.0000000000000000    7.6929239999999997    0.0000000000000000
   0.0000000000000000    0.0000000000000000    7.6929239999999997
Fe F
24 8
direct
   0.0000000000000000    0.2500000000000000    0.2500000000000000 Fe
   0.0000000000000000    0.2500000000000000    0.7500000000000000 Fe
   0.0000000000000000    0.7500000000000000    0.2500000000000000 Fe
   0.0000000000000000    0.7500000000000000    0.7500000000000000 Fe
   0.5000000000000000    0.2500000000000000    0.2500000000000000 Fe
   0.5000000000000000    0.2500000000000000    0.7500000000000000 Fe
   0.5000000000000000    0.7500000000000000    0.2500000000000000 Fe
   0.5000000000000000    0.7500000000000000    0.7500000000000000 Fe
   0.2500000000000000    0.0000000000000000    0.2500000000000000 Fe
   0.2500000000000000    0.0000000000000000    0.7500000000000000 Fe
   0.2500000000000000    0.5000000000000000    0.2500000000000000 Fe
   0.2500000000000000    0.5000000000000000    0.7500000000000000 Fe
   0.7500000000000000    0.0000000000000000    0.2500000000000000 Fe
   0.7500000000000000    0.0000000000000000    0.7500000000000000 Fe
   0.7500000000000000    0.5000000000000000    0.2500000000000000 Fe
   0.7500000000000000    0.5000000000000000    0.7500000000000000 Fe
   0.2500000000000000    0.2500000000000000    0.0000000000000000 Fe
   0.2500000000000000    0.2500000000000000    0.5000000000000000 Fe
   0.2500000000000000    0.7500000000000000    0.0000000000000000 Fe
   0.2500000000000000    0.7500000000000000    0.5000000000000000 Fe
   0.7500000000000000    0.2500000000000000    0.0000000000000000 Fe
   0.7500000000000000    0.2500000000000000    0.5000000000000000 Fe
   0.7500000000000000    0.7500000000000000    0.0000000000000000 Fe
   0.7500000000000000    0.7500000000000000    0.5000000000000000 Fe
   0.0000000000000000    0.0000000000000000    0.0000000000000000 F
   0.0000000000000000    0.0000000000000000    0.5000000000000000 F
   0.0000000000000000    0.5000000000000000    0.0000000000000000 F
   0.0000000000000000    0.5000000000000000    0.5000000000000000 F
   0.5000000000000000    0.0000000000000000    0.0000000000000000 F
   0.5000000000000000    0.0000000000000000    0.5000000000000000 F
   0.5000000000000000    0.5000000000000000    0.0000000000000000 F
   0.5000000000000000    0.5000000000000000    0.5000000000000000 F
