Fe2 F6
1.0
   1.6869884399999999    4.2417846099999998    8.2369904799999993
  -2.8031968799999998    4.1772710000000002    5.3196316100000001
  -1.6052259800000002   -4.1838924799999999   -2.8993640200000002
Fe F
2 6
direct
  -0.0000000200000000    0.5000001300000000    0.0000001900000000 Fe
   0.0000000400000000    0.0000000200000000    0.0000002500000000 Fe
   0.4998399100000000    0.3723548700000000    0.6184913300000000 F
   0.1264107000000000    0.2503557400000000    0.2535387200000000 F
   0.1186711999999990    0.1273653900000000    0.6185094900000000 F
   0.5001601500000000    0.6276449200000001    0.3815085900000000 F
   0.8735891300000000    0.7496442500000000    0.7464609000000000 F
   0.8813288900000000    0.8726346600000000    0.3814905300000000 F
