Fe8 F24
1.0
   1.6869884399999999    4.2417846099999998    8.2369904799999993
  -5.6063937599999996    8.3545420000000004   10.6392632200000001
  -3.2104519600000003   -8.3677849599999998   -5.7987280400000003
Fe F
8 24
direct
   0.9999999800000000    0.2500000650000000    0.0000000950000000 Fe
   0.9999999800000001    0.2500000650000000    0.5000000950000001 Fe
   0.9999999799999998    0.7500000650000000    0.0000000950000000 Fe
   0.9999999800000001    0.7500000649999999    0.5000000950000001 Fe
   0.0000000400000000    0.0000000100000000    0.0000001250000000 Fe
   0.0000000400000002    0.0000000099999999    0.5000001250000000 Fe
   0.0000000399999999    0.5000000100000001    0.0000001250000001 Fe
   0.0000000400000002    0.5000000099999999    0.5000001250000000 Fe
   0.4998399100000001    0.1861774350000000    0.3092456650000000 F
   0.4998399100000003    0.1861774349999999    0.8092456650000002 F
   0.4998399099999999    0.6861774349999999    0.3092456650000000 F
   0.4998399100000002    0.6861774349999999    0.8092456650000001 F
   0.1264107000000000    0.1251778700000000    0.1267693600000000 F
   0.1264107000000002    0.1251778699999999    0.6267693600000001 F
   0.1264107000000002    0.6251778700000000    0.1267693600000001 F
   0.1264107000000003    0.6251778700000000    0.6267693600000002 F
   0.1186711999999991    0.0636826950000000    0.3092547450000000 F
   0.1186711999999993    0.0636826949999999    0.8092547450000001 F
   0.1186711999999990    0.5636826950000000    0.3092547450000001 F
   0.1186711999999992    0.5636826950000000    0.8092547450000001 F
   0.5001601500000001    0.3138224600000000    0.1907542950000002 F
   0.5001601500000004    0.3138224600000000    0.6907542950000002 F
   0.5001601500000004    0.8138224600000000    0.1907542950000003 F
   0.5001601500000004    0.8138224599999999    0.6907542950000002 F
   0.8735891300000004    0.3748221250000000    0.3732304500000002 F
   0.8735891300000006    0.3748221250000000    0.8732304500000002 F
   0.8735891300000004    0.8748221250000000    0.3732304500000003 F
   0.8735891300000006    0.8748221250000000    0.8732304500000003 F
   0.8813288900000003    0.4363173300000001    0.1907452650000001 F
   0.8813288900000004    0.4363173299999999    0.6907452650000001 F
   0.8813288900000001    0.9363173300000001    0.1907452650000000 F
   0.8813288900000005    0.9363173299999999    0.6907452650000002 F
