Fe3 F9
1.0
   2.6166079999999998   -4.5320979999999995    0.0000000000000000
   2.6166079999999998    4.5320979999999995    0.0000000000000000
   0.0000000000000000    0.0000000000000000    6.9845240000000004
Fe F
3 9
direct
   0.6666670000000000    0.3333330000000000    0.3398580000000000 Fe
   0.0000000000000000    0.0000000000000000    0.0000000000000000 Fe
   0.3333330000000000    0.6666670000000000    0.6601420000000000 Fe
   0.9143030000000000    0.6696219999999991    0.1739470000000000 F
   0.2446800000000000    0.3303780000000000    0.8260529999999990 F
   0.3303780000000000    0.2446800000000000    0.1739470000000000 F
   0.6095860000000000    0.6095860000000000    0.5000000000000000 F
   0.0856970000000000    0.7553200000000001    0.8260529999999990 F
   0.3904140000000000    0.0000000000000000    0.5000000000000000 F
   0.7553200000000001    0.0856970000000000    0.1739470000000000 F
   0.0000000000000000    0.3904140000000000    0.5000000000000000 F
   0.6696219999999991    0.9143030000000000    0.8260529999999990 F
