Fe9 F27
1.0
   2.6166079999999998   -4.5320979999999995    0.0000000000000000
   2.6166079999999998    4.5320979999999995    0.0000000000000000
   0.0000000000000000    0.0000000000000000   20.9535720000000012
Fe F
9 27
direct
   0.6666670000000000    0.3333330000000000    0.1132860000000000 Fe
   0.6666670000000000    0.3333330000000000    0.4466193333333334 Fe
   0.6666670000000000    0.3333330000000000    0.7799526666666666 Fe
   0.0000000000000000    0.0000000000000000    0.0000000000000000 Fe
   0.0000000000000000    0.0000000000000000    0.3333333333333333 Fe
   0.0000000000000000    0.0000000000000000    0.6666666666666666 Fe
   0.3333330000000000    0.6666670000000000    0.2200473333333333 Fe
   0.3333330000000000    0.6666670000000000    0.5533806666666666 Fe
   0.3333330000000000    0.6666670000000000    0.8867139999999999 Fe
   0.9143029999999999    0.6696219999999991    0.0579823333333333 F
   0.9143029999999999    0.6696219999999991    0.3913156666666666 F
   0.9143029999999999    0.6696219999999991    0.7246489999999999 F
   0.2446800000000000    0.3303780000000001    0.2753509999999997 F
   0.2446800000000000    0.3303780000000001    0.6086843333333329 F
   0.2446800000000000    0.3303780000000001    0.9420176666666664 F
   0.3303780000000000    0.2446800000000000    0.0579823333333333 F
   0.3303780000000000    0.2446800000000000    0.3913156666666666 F
   0.3303780000000000    0.2446800000000000    0.7246489999999999 F
   0.6095860000000000    0.6095860000000000    0.1666666666666667 F
   0.6095860000000000    0.6095860000000000    0.4999999999999999 F
   0.6095860000000000    0.6095860000000000    0.8333333333333333 F
   0.0856970000000000    0.7553200000000001    0.2753509999999997 F
   0.0856970000000000    0.7553200000000001    0.6086843333333329 F
   0.0856970000000000    0.7553200000000001    0.9420176666666664 F
   0.3904140000000000    1.0000000000000000    0.1666666666666667 F
   0.3904140000000000    1.0000000000000000    0.4999999999999999 F
   0.3904140000000000    1.0000000000000000    0.8333333333333333 F
   0.7553200000000002    0.0856970000000000    0.0579823333333333 F
   0.7553200000000002    0.0856970000000000    0.3913156666666666 F
   0.7553200000000002    0.0856970000000000    0.7246489999999999 F
   1.0000000000000000    0.3904140000000000    0.1666666666666667 F
   1.0000000000000000    0.3904140000000000    0.4999999999999999 F
   1.0000000000000000    0.3904140000000000    0.8333333333333333 F
   0.6696219999999989    0.9143030000000000    0.2753509999999997 F
   0.6696219999999989    0.9143030000000000    0.6086843333333329 F
   0.6696219999999989    0.9143030000000000    0.9420176666666664 F
