Fe3 F1
1.0
   3.8464619999999998    0.0000000000000000    0.0000000000000000
   0.0000000000000000    3.8464619999999998    0.0000000000000000
   0.0000000000000000    0.0000000000000000    3.8464619999999998
Fe F
3 1
direct
   0.0000000000000000    0.5000000000000000    0.5000000000000000 Fe
   0.5000000000000000    0.0000000000000000    0.5000000000000000 Fe
   0.5000000000000000    0.5000000000000000    0.0000000000000000 Fe
   0.0000000000000000    0.0000000000000000    0.0000000000000000 F
